47
1 0 1
2 0 2
2 1 1
3 0 2
3 1 2
3 2 1
4 0 1
4 1 1
4 2 2
4 3 2
5 0 1
5 1 2
5 2 2
5 3 2
5 4 1
6 0 2
6 1 1
6 2 2
6 3 2
6 4 2
6 5 1
7 0 1
7 1 1
7 2 1
7 3 2
7 4 2
7 5 2
7 6 1
8 0 1
8 1 2
8 2 1
8 3 2
8 4 1
8 5 2
8 6 1
8 7 1
9 0 1
9 1 2
9 2 1
9 3 1
9 4 1
9 5 2
9 6 1
9 7 1
9 8 2
10 0 1
10 1 2
10 2 2
10 3 2
10 4 1
10 5 1
10 6 1
10 7 2
10 8 1
10 9 2
11 0 1
11 1 1
11 2 2
11 3 2
11 4 1
11 5 2
11 6 2
11 7 2
11 8 2
11 9 2
11 10 2
12 0 2
12 1 2
12 2 2
12 3 1
12 4 1
12 5 1
12 6 2
12 7 2
12 8 1
12 9 2
12 10 1
12 11 2
13 0 2
13 1 2
13 2 2
13 3 2
13 4 1
13 5 1
13 6 2
13 7 2
13 8 2
13 9 2
13 10 2
13 11 1
13 12 2
14 0 1
14 1 2
14 2 2
14 3 2
14 4 1
14 5 2
14 6 2
14 7 2
14 8 1
14 9 1
14 10 1
14 11 2
14 12 2
14 13 1
15 0 1
15 1 1
15 2 1
15 3 2
15 4 2
15 5 1
15 6 1
15 7 1
15 8 2
15 9 2
15 10 2
15 11 2
15 12 2
15 13 1
15 14 2
16 0 1
16 1 1
16 2 1
16 3 1
16 4 1
16 5 1
16 6 1
16 7 2
16 8 1
16 9 1
16 10 2
16 11 1
16 12 1
16 13 2
16 14 2
16 15 1
17 0 1
17 1 1
17 2 1
17 3 1
17 4 1
17 5 2
17 6 1
17 7 1
17 8 1
17 9 2
17 10 1
17 11 2
17 12 2
17 13 2
17 14 1
17 15 2
17 16 2
18 0 2
18 1 1
18 2 2
18 3 2
18 4 2
18 5 2
18 6 1
18 7 2
18 8 1
18 9 2
18 10 1
18 11 1
18 12 1
18 13 2
18 14 1
18 15 2
18 16 2
18 17 2
19 0 1
19 1 1
19 2 2
19 3 1
19 4 2
19 5 2
19 6 1
19 7 1
19 8 1
19 9 1
19 10 1
19 11 1
19 12 1
19 13 2
19 14 1
19 15 2
19 16 2
19 17 1
19 18 1
20 0 2
20 1 1
20 2 2
20 3 1
20 4 2
20 5 2
20 6 1
20 7 1
20 8 1
20 9 1
20 10 1
20 11 2
20 12 2
20 13 1
20 14 1
20 15 1
20 16 1
20 17 2
20 18 2
20 19 2
21 0 1
21 1 2
21 2 1
21 3 2
21 4 1
21 5 2
21 6 1
21 7 1
21 8 2
21 9 2
21 10 2
21 11 2
21 12 2
21 13 1
21 14 1
21 15 2
21 16 1
21 17 1
21 18 1
21 19 2
21 20 1
22 0 2
22 1 2
22 2 2
22 3 2
22 4 2
22 5 1
22 6 2
22 7 2
22 8 2
22 9 1
22 10 2
22 11 2
22 12 1
22 13 1
22 14 2
22 15 1
22 16 1
22 17 1
22 18 1
22 19 1
22 20 1
22 21 2
23 0 1
23 1 2
23 2 2
23 3 1
23 4 1
23 5 1
23 6 2
23 7 2
23 8 2
23 9 2
23 10 1
23 11 2
23 12 1
23 13 2
23 14 2
23 15 2
23 16 2
23 17 2
23 18 1
23 19 1
23 20 1
23 21 2
23 22 1
24 0 1
24 1 2
24 2 2
24 3 2
24 4 2
24 5 1
24 6 1
24 7 2
24 8 1
24 9 1
24 10 2
24 11 1
24 12 1
24 13 2
24 14 2
24 15 1
24 16 2
24 17 2
24 18 1
24 19 1
24 20 1
24 21 1
24 22 2
24 23 2
25 0 1
25 1 1
25 2 2
25 3 2
25 4 1
25 5 2
25 6 2
25 7 2
25 8 1
25 9 2
25 10 1
25 11 2
25 12 2
25 13 1
25 14 1
25 15 1
25 16 2
25 17 1
25 18 1
25 19 2
25 20 2
25 21 1
25 22 1
25 23 1
25 24 1
26 0 2
26 1 1
26 2 2
26 3 2
26 4 1
26 5 1
26 6 1
26 7 2
26 8 1
26 9 1
26 10 1
26 11 2
26 12 1
26 13 1
26 14 1
26 15 2
26 16 2
26 17 2
26 18 2
26 19 2
26 20 1
26 21 1
26 22 2
26 23 2
26 24 1
26 25 1
27 0 2
27 1 2
27 2 1
27 3 2
27 4 2
27 5 1
27 6 2
27 7 1
27 8 2
27 9 1
27 10 1
27 11 2
27 12 1
27 13 1
27 14 2
27 15 1
27 16 1
27 17 1
27 18 1
27 19 2
27 20 1
27 21 2
27 22 1
27 23 2
27 24 2
27 25 1
27 26 1
28 0 2
28 1 2
28 2 1
28 3 2
28 4 2
28 5 1
28 6 2
28 7 1
28 8 1
28 9 2
28 10 2
28 11 2
28 12 1
28 13 1
28 14 1
28 15 2
28 16 1
28 17 2
28 18 1
28 19 2
28 20 1
28 21 1
28 22 2
28 23 1
28 24 1
28 25 2
28 26 1
28 27 1
29 0 1
29 1 1
29 2 2
29 3 2
29 4 1
29 5 2
29 6 2
29 7 2
29 8 2
29 9 2
29 10 2
29 11 1
29 12 1
29 13 2
29 14 1
29 15 2
29 16 2
29 17 1
29 18 1
29 19 1
29 20 1
29 21 1
29 22 2
29 23 1
29 24 1
29 25 1
29 26 1
29 27 2
29 28 2
30 0 1
30 1 1
30 2 1
30 3 2
30 4 2
30 5 2
30 6 2
30 7 2
30 8 2
30 9 2
30 10 1
30 11 2
30 12 2
30 13 1
30 14 2
30 15 1
30 16 2
30 17 2
30 18 2
30 19 1
30 20 1
30 21 1
30 22 2
30 23 2
30 24 1
30 25 1
30 26 1
30 27 1
30 28 2
30 29 1
31 0 2
31 1 2
31 2 2
31 3 2
31 4 2
31 5 1
31 6 2
31 7 1
31 8 1
31 9 2
31 10 2
31 11 1
31 12 2
31 13 2
31 14 2
31 15 2
31 16 2
31 17 2
31 18 2
31 19 1
31 20 2
31 21 1
31 22 1
31 23 2
31 24 2
31 25 2
31 26 1
31 27 1
31 28 1
31 29 1
31 30 1
32 0 1
32 1 1
32 2 1
32 3 1
32 4 1
32 5 1
32 6 2
32 7 1
32 8 1
32 9 2
32 10 2
32 11 1
32 12 1
32 13 1
32 14 1
32 15 1
32 16 2
32 17 1
32 18 1
32 19 1
32 20 1
32 21 1
32 22 1
32 23 2
32 24 2
32 25 1
32 26 1
32 27 1
32 28 2
32 29 2
32 30 1
32 31 2
33 0 1
33 1 2
33 2 2
33 3 2
33 4 2
33 5 2
33 6 2
33 7 1
33 8 2
33 9 2
33 10 1
33 11 1
33 12 1
33 13 1
33 14 1
33 15 1
33 16 1
33 17 1
33 18 2
33 19 1
33 20 2
33 21 1
33 22 2
33 23 2
33 24 2
33 25 2
33 26 1
33 27 1
33 28 1
33 29 2
33 30 1
33 31 1
33 32 1
34 0 2
34 1 1
34 2 1
34 3 2
34 4 2
34 5 2
34 6 1
34 7 2
34 8 2
34 9 2
34 10 2
34 11 1
34 12 1
34 13 1
34 14 1
34 15 1
34 16 2
34 17 2
34 18 2
34 19 2
34 20 1
34 21 1
34 22 2
34 23 1
34 24 2
34 25 1
34 26 1
34 27 2
34 28 1
34 29 1
34 30 1
34 31 2
34 32 1
34 33 1
35 0 2
35 1 1
35 2 2
35 3 1
35 4 1
35 5 2
35 6 2
35 7 1
35 8 2
35 9 2
35 10 1
35 11 1
35 12 2
35 13 2
35 14 1
35 15 1
35 16 2
35 17 2
35 18 1
35 19 1
35 20 2
35 21 1
35 22 2
35 23 2
35 24 1
35 25 2
35 26 2
35 27 1
35 28 2
35 29 1
35 30 1
35 31 2
35 32 1
35 33 1
35 34 1
36 0 2
36 1 2
36 2 1
36 3 2
36 4 2
36 5 2
36 6 1
36 7 1
36 8 2
36 9 1
36 10 2
36 11 2
36 12 1
36 13 1
36 14 1
36 15 1
36 16 2
36 17 1
36 18 1
36 19 2
36 20 1
36 21 2
36 22 2
36 23 1
36 24 1
36 25 1
36 26 1
36 27 2
36 28 1
36 29 2
36 30 2
36 31 1
36 32 1
36 33 2
36 34 2
36 35 2
37 0 2
37 1 1
37 2 1
37 3 2
37 4 2
37 5 1
37 6 2
37 7 1
37 8 2
37 9 1
37 10 2
37 11 2
37 12 2
37 13 2
37 14 1
37 15 1
37 16 2
37 17 2
37 18 2
37 19 1
37 20 2
37 21 1
37 22 1
37 23 2
37 24 1
37 25 2
37 26 2
37 27 2
37 28 2
37 29 2
37 30 2
37 31 1
37 32 2
37 33 1
37 34 1
37 35 1
37 36 1
38 0 1
38 1 2
38 2 2
38 3 2
38 4 2
38 5 2
38 6 2
38 7 1
38 8 1
38 9 1
38 10 2
38 11 1
38 12 2
38 13 2
38 14 2
38 15 1
38 16 2
38 17 2
38 18 1
38 19 2
38 20 1
38 21 2
38 22 1
38 23 1
38 24 1
38 25 1
38 26 1
38 27 1
38 28 1
38 29 1
38 30 2
38 31 1
38 32 2
38 33 1
38 34 2
38 35 2
38 36 2
38 37 2
39 0 1
39 1 2
39 2 2
39 3 1
39 4 2
39 5 2
39 6 1
39 7 2
39 8 1
39 9 2
39 10 1
39 11 2
39 12 2
39 13 2
39 14 1
39 15 1
39 16 1
39 17 1
39 18 1
39 19 2
39 20 2
39 21 1
39 22 1
39 23 1
39 24 2
39 25 1
39 26 1
39 27 2
39 28 2
39 29 2
39 30 2
39 31 1
39 32 1
39 33 2
39 34 1
39 35 2
39 36 1
39 37 1
39 38 1
40 0 2
40 1 1
40 2 1
40 3 2
40 4 1
40 5 1
40 6 2
40 7 2
40 8 1
40 9 2
40 10 1
40 11 1
40 12 1
40 13 1
40 14 1
40 15 1
40 16 2
40 17 1
40 18 2
40 19 2
40 20 1
40 21 2
40 22 1
40 23 1
40 24 2
40 25 2
40 26 2
40 27 1
40 28 2
40 29 2
40 30 2
40 31 2
40 32 1
40 33 2
40 34 2
40 35 2
40 36 2
40 37 2
40 38 1
40 39 2
41 0 1
41 1 2
41 2 2
41 3 2
41 4 1
41 5 1
41 6 1
41 7 1
41 8 2
41 9 1
41 10 2
41 11 1
41 12 2
41 13 1
41 14 1
41 15 2
41 16 1
41 17 1
41 18 1
41 19 2
41 20 2
41 21 2
41 22 2
41 23 1
41 24 1
41 25 2
41 26 1
41 27 1
41 28 2
41 29 2
41 30 2
41 31 1
41 32 2
41 33 1
41 34 1
41 35 1
41 36 2
41 37 1
41 38 2
41 39 1
41 40 1
42 0 2
42 1 2
42 2 1
42 3 2
42 4 1
42 5 1
42 6 2
42 7 2
42 8 2
42 9 2
42 10 1
42 11 2
42 12 1
42 13 2
42 14 1
42 15 2
42 16 1
42 17 2
42 18 2
42 19 1
42 20 1
42 21 2
42 22 1
42 23 1
42 24 2
42 25 2
42 26 1
42 27 2
42 28 2
42 29 2
42 30 2
42 31 1
42 32 1
42 33 2
42 34 2
42 35 2
42 36 1
42 37 2
42 38 1
42 39 2
42 40 1
42 41 1
43 0 2
43 1 1
43 2 1
43 3 2
43 4 2
43 5 1
43 6 2
43 7 1
43 8 2
43 9 2
43 10 1
43 11 1
43 12 2
43 13 1
43 14 1
43 15 1
43 16 1
43 17 1
43 18 2
43 19 2
43 20 1
43 21 2
43 22 1
43 23 1
43 24 2
43 25 1
43 26 1
43 27 1
43 28 1
43 29 1
43 30 1
43 31 1
43 32 1
43 33 2
43 34 2
43 35 2
43 36 1
43 37 1
43 38 1
43 39 1
43 40 1
43 41 1
43 42 2
44 0 2
44 1 2
44 2 2
44 3 1
44 4 2
44 5 1
44 6 2
44 7 1
44 8 1
44 9 2
44 10 1
44 11 1
44 12 2
44 13 1
44 14 2
44 15 2
44 16 1
44 17 1
44 18 1
44 19 1
44 20 2
44 21 1
44 22 2
44 23 2
44 24 1
44 25 1
44 26 1
44 27 2
44 28 1
44 29 1
44 30 1
44 31 2
44 32 2
44 33 2
44 34 2
44 35 2
44 36 2
44 37 2
44 38 1
44 39 1
44 40 1
44 41 2
44 42 2
44 43 2
45 0 1
45 1 1
45 2 2
45 3 1
45 4 2
45 5 1
45 6 1
45 7 2
45 8 2
45 9 2
45 10 2
45 11 2
45 12 2
45 13 1
45 14 2
45 15 1
45 16 2
45 17 1
45 18 1
45 19 2
45 20 2
45 21 2
45 22 2
45 23 2
45 24 1
45 25 2
45 26 1
45 27 2
45 28 2
45 29 2
45 30 2
45 31 2
45 32 1
45 33 1
45 34 1
45 35 2
45 36 1
45 37 1
45 38 2
45 39 1
45 40 2
45 41 1
45 42 2
45 43 2
45 44 2
46 0 1
46 1 2
46 2 2
46 3 2
46 4 1
46 5 2
46 6 1
46 7 1
46 8 1
46 9 1
46 10 2
46 11 1
46 12 2
46 13 2
46 14 2
46 15 1
46 16 1
46 17 2
46 18 1
46 19 2
46 20 2
46 21 1
46 22 2
46 23 1
46 24 1
46 25 1
46 26 1
46 27 1
46 28 2
46 29 2
46 30 1
46 31 2
46 32 1
46 33 2
46 34 2
46 35 2
46 36 1
46 37 1
46 38 1
46 39 1
46 40 1
46 41 2
46 42 1
46 43 1
46 44 1
46 45 2
